c This Formular is generated by mcnf
c
c    horn? no 
c    forced? no 
c    mixed sat? no 
c    clause length = 3 
c
p cnf 20  91 
 -7 18 10 0
16 -4 -7 0
9 13 1 0
-8 19 13 0
17 9 20 0
20 -17 3 0
-10 -7 8 0
10 -19 -15 0
15 7 14 0
-18 17 -10 0
3 -6 16 0
-9 -4 13 0
-19 -9 -1 0
8 14 6 0
-3 -18 4 0
12 17 16 0
13 11 -14 0
8 -6 -1 0
-7 -13 -8 0
-12 -3 7 0
-8 -1 -4 0
11 19 1 0
4 -13 -5 0
17 -13 19 0
2 14 11 0
-11 -14 -5 0
9 2 17 0
-15 -9 -14 0
10 -9 -6 0
17 20 -11 0
-12 -18 11 0
-15 20 4 0
12 4 17 0
19 13 -17 0
-2 18 15 0
-9 -17 -19 0
2 -8 -11 0
14 -11 3 0
19 -15 -20 0
4 12 -2 0
-4 20 -12 0
%
0

35 32 72 93 63 57 36 27 79 33 73 19 26 27 77 65 52 5 82 80
